10 10 3

0 379 442 183 458 93 95 258 360 429 
345 0 64 169 65 463 115 332 147 342 
252 253 0 315 193 435 203 407 423 127 
242 497 161 0 283 375 309 172 88 352 
217 53 419 352 0 348 433 228 119 151 
293 158 455 135 116 0 208 156 259 349 
310 165 478 143 114 474 0 461 347 104 
269 469 142 328 393 145 246 0 451 200 
385 178 269 486 422 377 440 263 0 199 
354 125 408 202 141 73 179 235 137 0 

283 0 2
283 1 6
283 2 4
283 3 0
283 4 5
283 5 4
283 6 3
283 7 8
283 8 9
283 9 5

